a 6 7 0 14 0 2 2 2
b 6 9 8 12 0 0 2 2
c 5 7 16 14 0 2 2 2
d 6 9 23 12 0 0 2 2
e 6 9 31 14 0 2 2 2
f 5 9 39 12 0 0 2 2
g 6 11 46 14 0 2 2 2
h 6 9 54 12 0 0 2 2
i 2 9 62 12 0 0 2 2
j 5 12 64 12 0 0 2 2
k 6 9 71 12 0 0 2 2
l 2 9 79 12 0 0 2 2
m 10 7 83 14 0 2 2 2
n 6 7 95 14 0 2 2 2
o 6 7 103 14 0 2 2 2
p 6 9 111 14 0 2 2 2
q 6 9 119 14 0 2 2 2
r 5 7 127 14 0 2 2 2
s 5 7 134 14 0 2 2 2
t 4 9 142 12 0 0 2 2
u 6 7 147 14 0 2 2 2
v 6 7 155 14 0 2 2 2
w 10 7 163 14 0 2 2 2
x 6 7 175 14 0 2 2 2
y 6 10 183 14 0 2 2 2
z 6 7 191 14 0 2 2 2
A 6 9 0 0 0 0 2 2
B 6 9 8 0 0 0 2 2
C 6 9 16 0 0 0 2 2
D 6 9 24 0 0 0 2 2
E 5 9 32 0 0 0 2 2
F 5 9 39 0 0 0 2 2
G 6 9 46 0 0 0 2 2
H 6 9 54 0 0 0 2 2
I 2 9 62 0 0 0 2 2
J 6 9 66 0 0 0 2 2
K 7 9 74 0 0 0 2 2
L 5 9 83 0 0 0 2 2
M 10 9 90 0 0 0 2 2
N 7 9 102 0 0 0 2 2
O 6 9 111 0 0 0 2 2
P 6 9 119 0 0 0 2 2
Q 6 10 127 0 0 0 2 2
R 6 9 135 0 0 0 2 2
S 5 9 143 0 0 0 2 2
T 6 9 150 0 0 0 2 2
U 6 9 158 0 0 0 2 2
V 6 9 166 0 0 0 2 2
W 10 9 174 0 0 0 2 2
X 6 9 186 0 0 0 2 2
Y 6 9 194 0 0 0 2 2
Z 6 9 202 0 0 0 2 2
0 6 9 0 24 0 0 2 2
1 3 9 8 24 0 0 2 2
2 6 9 13 24 0 0 2 2
3 6 9 21 24 0 0 2 2
4 7 9 29 24 0 0 2 2
5 6 9 38 24 0 0 2 2
6 6 9 46 24 0 0 2 2
7 6 9 54 24 0 0 2 2
8 6 9 62 24 0 0 2 2
9 6 9 70 24 0 0 2 2
! 2 9 78 24 0 0 2 2
" 6 4 82 24 0 0 2 2
. 2 2 19 43 0 7 2 2
? 6 9 38 36 0 0 2 2
' 2 4 46 36 0 0 2 2
: 2 7 63 38 0 2 2 2
~ 7 4 99 36 0 0 2 2
/ 5 10 31 36 0 0 2 2
, 2 4 256 64 0 7 2 2
- 5 1 151 28 0 4 2 2

